NAME: ACTUAL_TOURS/amz0641
TYPE: TOUR
COMMENT: RouteID_42b76109-090e-45df-b42c-9a5568a88fbe
DIMENSION: 117
TOUR_SECTION
15
79
111
61
91
25
19
49
57
4
44
5
115
80
108
20
45
17
22
93
52
106
109
18
78
96
59
74
63
76
38
95
31
37
114
84
107
103
53
75
66
21
36
105
67
97
56
7
9
28
16
34
39
60
42
117
33
65
90
92
24
27
13
2
71
102
14
83
12
94
82
62
41
3
1
70
116
26
6
86
112
40
101
55
54
110
104
73
99
100
64
11
85
51
32
87
50
58
77
88
69
81
47
10
48
98
46
113
72
89
23
35
29
68
43
8
30
-1
EOF
